5 5
7 1 3 20 2 5 9 2 13 1 1 20 1 4 2 4 5 18 1 20 2 2 3 2 1 5 6 5 4 19 1 17 2 7 5 9 3 5
4 5 2 2 4 20 1 6 3 4 5 16 4 1 3 3 18 4 11 5 19 5 1 8 3 14 5 13 2 18 4 2 4 5 2 3 2 4 11 1 14
5 5 3 6 1 8 5 16 2 7 4 16 5 1 5 5 19 4 8 3 9 2 7 3 5 14 4 3 3 9 4 4 16 2 19 3 16 5 12 3 4 17 2 5 5 18
6 1 1 8 3 4 8 3 18 2 11 5 4 6 2 8 5 6 1 10 3 4 4 1 20 2 8 5 13 4 16 4 1 10 5 12 2 20 3 15 3 2 20 4 15 1 6
4 3 5 2 4 9 1 13 3 1 14 2 3 3 15 2 5 12 4 3 2 5 11 2 20